7 4 8 8 3 3 7 4 0 0 2 5 0 7 -1 
0 -1 4 -1 9 5 9 3 5 0 0 2 5 8 9 1 7 0 7 -1 
4 8 1 5 0 9 4 6 9 8 2 2 9 -1 9 2 3 5 0 5 8 -1 -1 
8 4 8 8 8 0 7 7 0 3 -1 8 3 5 6 3 2 -1 
2 8 5 8 -1 5 0 1 0 7 0 9 5 7 1 1 7 9 6 1 -1 
5 3 5 8 0 8 0 4 8 -1 3 -1 9 6 -1 
8 -1 7 7 6 9 3 2 7 1 9 7 3 8 7 5 -1 
4 3 1 7 5 1 8 0 2 9 7 5 8 8 8 0 0 5 2 5 5 3 3 1 -1 
8 5 3 9 4 9 3 9 7 4 0 9 2 2 9 4 2 4 5 9 2 0 -1 
0 7 6 0 7 4 0 0 9 6 4 5 6 6 6 4 -1 1 -1 
